0001 34
0002 8
0003 14
0004 24
0005 35
0006 31
0007 31
0008 32
0009 20
0010 6
0011 5
0012 11
0013 35
0014 33
0015 13
0016 30
0017 33
0018 29
0019 31
0020 33
0021 16
0022 13
0023 2
0024 20
0025 15
0026 35
0027 30
0028 32
0029 10
0030 35
0031 11
0032 29
0033 32
0034 6
0035 33
0036 30
0037 25
0038 28
0039 20
0040 33
0041 28
0042 31
0043 34
0044 33
0045 35
0046 34
0047 27
0048 34
0049 18
0050 16
0051 21
0052 33
0053 23
0054 22
0055 25
0056 32
0057 35
0058 30
0059 28
0060 19
0061 27
0062 27
0063 25
0064 23
0065 28
0066 21
0067 6
0068 35
0069 27
0070 18
0071 4
0072 19
0073 35
0074 33
0075 27
0076 15
0077 26
0078 9
0079 32
0080 24
0081 34
0082 23
0083 32
0084 32
0085 31
0086 16
0087 26
0088 31
0089 34
0090 29
0091 15
0092 33
0093 20
0094 34
0095 35
0096 27
0097 26
0098 3
0099 3
0100 22
0101 24
0102 12
0103 29
0104 26
0105 14
0106 10
0107 30
0108 15
0109 32
0110 28
0111 32
0112 23
0113 4
0114 31
0115 29
0116 11
0117 15
0118 7
0119 27
0120 11
0121 33
0122 21
0123 3
0124 34
0125 17
0126 9
0127 20
0128 25
0129 33
0130 29
0131 19
0132 25
0133 12
0134 17
0135 31
0136 31
0137 4
0138 28
0139 10
0140 8
0141 24
0142 34
0143 4
0144 32
0145 18
0146 34
0147 1
0148 35
0149 24
0150 33
0151 23
0152 29
0153 31
0154 28
0155 9
0156 19
0157 34
0158 3
0159 14
0160 30
0161 33
0162 16
0163 35
0164 29
0165 34
0166 2
0167 25
0168 28
0169 28
0170 19
0171 32
0172 23
0173 21
0174 22
0175 34
0176 35
0177 35
0178 29
0179 34
0180 24
0181 34
0182 34
0183 5
0184 24
0185 20
0186 34
0187 32
0188 13
0189 33
0190 21
0191 28
0192 34
0193 35
0194 21
0195 29
0196 18
0197 31
0198 28
0199 16
0200 30
0201 19
0202 20
0203 3
0204 24
0205 23
0206 1
0207 34
0208 35
0209 25
0210 24
0211 31
0212 21
0213 29
0214 33
0215 14
0216 29
0217 28
0218 32
0219 15
0220 20
0221 34
0222 33
0223 35
0224 31
0225 26
0226 35
0227 30
0228 34
0229 27
0230 33
0231 28
0232 28
0233 35
0234 33
0235 28
0236 29
0237 32
0238 9
0239 4
0240 35
0241 9
0242 21
0243 25
0244 18
0245 23
0246 34
0247 15
0248 9
0249 9
0250 4
0251 28
0252 16
0253 32
0254 35
0255 22
0256 10
0257 19
0258 33
0259 18
0260 30
0261 13
0262 23
0263 24
0264 18
0265 34
0266 35
0267 20
0268 31
0269 30
0270 29
0271 16
0272 33
0273 21
0274 23
0275 18
0276 25
0277 16
0278 27
0279 17
0280 35
0281 28
0282 27
0283 35
0284 29
0285 26
0286 19
0287 24
0288 29
0289 30
0290 12
0291 35
0292 35
0293 32
0294 34
0295 35
0296 32
0297 16
0298 30
0299 10
0300 31
0301 20
0302 18
0303 28
0304 35
0305 32
0306 31
0307 33
0308 33
0309 30
0310 26
0311 19
0312 29
0313 27
0314 25
0315 31
0316 27
0317 21
0318 34
0319 20
0320 31
0321 35
0322 23
0323 31
0324 35
0325 9
0326 33
0327 35
0328 35
0329 31
0330 35
0331 21
0332 34
0333 28
0334 35
0335 33
0336 30
0337 26
0338 24
0339 16
0340 31
0341 35
0342 34
0343 31
0344 34
0345 33
0346 26
0347 9
0348 33
0349 26
0350 26
0351 23
0352 8
0353 26
0354 26
0355 19
0356 11
0357 33
0358 16
0359 21
0360 10
0361 33
0362 34
0363 24
0364 25
0365 28
0366 18
0367 33
0368 35
0369 29
0370 27
0371 34
0372 21
0373 32
0374 24
0375 21
0376 32
0377 27
0378 28
0379 28
0380 33
0381 18
0382 35
0383 28
0384 28
0385 23
0386 9
0387 23
0388 19
0389 23
0390 25
0391 13
0392 14
0393 32
0394 28
0395 4
0396 21
0397 20
0398 18
0399 30
0400 35
0401 31
0402 16
0403 34
0404 24
0405 35
0406 25
0407 33
0408 30
0409 19
0410 29
0411 28
0412 31
0413 35
0414 32
0415 33
0416 33
0417 16
0418 34
0419 30
0420 31
0421 35
0422 34
0423 35
0424 30
0425 25
0426 28
0427 22
0428 35
0429 26
0430 21
0431 31
0432 21
0433 18
0434 27
0435 20
0436 24
0437 15
0438 11
0439 30
0440 30
0441 30
0442 29
0443 34
0444 26
0445 4
0446 24
0447 5
0448 35
0449 17
0450 29
0451 30
0452 1
0453 3
0454 27
0455 32
0456 32
0457 34
0458 31
0459 33
0460 27
0461 16
0462 26
0463 21
0464 12
0465 22
0466 22
0467 22
0468 27
0469 23
0470 32
0471 34
0472 33
0473 29
0474 26
0475 25
0476 28
0477 31
0478 33
0479 30
0480 35
0481 31
0482 1
0483 27
0484 18
0485 33
0486 5
0487 13
0488 26
0489 13
0490 26
0491 15
0492 32
0493 27
0494 32
0495 35
0496 4
0497 31
0498 16
0499 34
0500 33
0501 20
0502 30
0503 23
0504 34
0505 30
0506 33
0507 26
0508 31
0509 23
0510 23
0511 30
0512 35
0513 7
0514 25
0515 19
0516 26
0517 15
0518 16
0519 25
0520 34
0521 7
0522 32
0523 13
0524 3
0525 30
0526 34
0527 28
0528 18
0529 23
0530 26
0531 33
0532 20
0533 35
0534 35
0535 33
0536 27
0537 35
0538 34
0539 31
0540 35
0541 31
0542 26
0543 17
0544 30
0545 27
0546 35
0547 33
0548 32
0549 35
0550 25
0551 29
0552 32
0553 35
0554 30
0555 31
0556 35
0557 35
0558 33
0559 31
0560 33
0561 34
0562 35
0563 34
0564 35
0565 31
0566 20
0567 35
0568 25
0569 30
0570 29
0571 34
0572 29
0573 27
0574 11
0575 25
0576 23
0577 32
0578 22
0579 30
0580 34
0581 32
0582 20
0583 30
0584 33
0585 35
0586 24
0587 30
0588 4
0589 30
0590 30
0591 35
0592 35
0593 25
0594 18
0595 17
0596 30
0597 18
0598 28
0599 26
0600 28
0601 32
0602 15
0603 31
0604 28
0605 35
0606 34
0607 4
0608 29
0609 20
0610 15
0611 8
0612 31
0613 27
0614 20
0615 16
0616 33
0617 34
0618 33
0619 31
0620 30
0621 35
0622 35
